unsat
(:cnf-encoding-aux-vars   143
 :eliminated-applications 3
 :eliminated-vars         129
 :max-memory              19.64
 :memory                  18.81
 :nlsat-conflicts         125
 :nlsat-decisions         2320
 :nlsat-propagations      3156
 :num-allocs              666715
 :rlimit-count            129125
 :time                    0.06
 :total-time              0.07)
